c Result of efficient AIG-to-CNF conversion using package CNF
p cnf 385 1560
-2 3 253 0
-2 -3 -253 0
2 -3 253 0
2 3 -253 0
-3 4 103 0
-3 -4 -103 0
3 -4 103 0
3 4 -103 0
-4 -5 -69 0
-4 5 69 0
4 5 -69 0
4 -5 69 0
-5 -6 -43 0
-5 6 43 0
5 6 -43 0
5 -6 43 0
-6 7 28 0
-6 -7 -28 0
6 -7 28 0
6 7 -28 0
-7 8 27 0
-7 -8 -27 0
7 -8 27 0
7 8 -27 0
-8 -9 -16 0
-8 9 16 0
8 9 -16 0
8 -9 16 0
-9 -10 -13 0
-9 10 13 0
9 10 -13 0
9 -10 13 0
-10 -11 -12 0
-10 11 12 0
10 11 -12 0
10 -11 12 0
11 -374 -377 0
-11 374 0
-11 377 0
12 -373 -376 0
-12 373 0
-12 376 0
13 -14 -15 0
-13 14 0
-13 15 0
14 -376 -377 0
-14 376 0
-14 377 0
15 -373 -381 0
-15 373 0
-15 381 0
16 -17 -18 0
-16 17 0
-16 18 0
17 -374 -375 0
-17 374 0
-17 375 0
-18 -19 -24 0
-18 19 24 0
18 19 -24 0
18 -19 24 0
-19 -20 -21 0
-19 20 21 0
19 20 -21 0
19 -20 21 0
-20 -14 -15 0
-20 14 15 0
20 14 -15 0
20 -14 15 0
21 -22 -23 0
-21 22 0
-21 23 0
22 -374 -378 0
-22 374 0
-22 378 0
23 -375 -376 0
-23 375 0
-23 376 0
24 -25 -26 0
-24 25 0
-24 26 0
25 -377 -381 0
-25 377 0
-25 381 0
26 -371 -373 0
-26 371 0
-26 373 0
-27 21 24 0
-27 20 21 0
-27 20 24 0
27 -20 -21 0
27 -21 -24 0
27 -20 -24 0
-28 29 42 0
-28 29 30 0
-28 30 42 0
28 -30 -42 0
28 -29 -42 0
28 -29 -30 0
-29 17 18 0
-29 -17 -18 0
29 -17 18 0
29 17 -18 0
30 -31 -32 0
-30 31 0
-30 32 0
-31 -22 -23 0
-31 22 23 0
31 22 -23 0
31 -22 23 0
-32 -33 -39 0
-32 33 39 0
32 33 -39 0
32 -33 39 0
-33 34 35 0
-33 -34 -35 0
33 -34 35 0
33 34 -35 0
-34 -25 -26 0
-34 25 26 0
34 25 -26 0
34 -25 26 0
-35 36 38 0
-35 37 38 0
-35 36 37 0
35 -36 -37 0
35 -37 -38 0
35 -36 -38 0
36 -374 -383 0
-36 374 0
-36 383 0
37 -376 -378 0
-37 376 0
-37 378 0
38 -375 -381 0
-38 375 0
-38 381 0
39 -40 -41 0
-39 40 0
-39 41 0
40 -371 -377 0
-40 371 0
-40 377 0
41 -373 -379 0
-41 373 0
-41 379 0
-42 34 35 0
-42 35 39 0
-42 34 39 0
42 -35 -39 0
42 -34 -35 0
42 -34 -39 0
43 -44 -46 0
-43 44 0
-43 46 0
-44 42 45 0
-44 -42 -45 0
44 -42 45 0
44 42 -45 0
-45 -29 -30 0
-45 29 30 0
45 29 -30 0
45 -29 30 0
-46 47 48 0
-46 48 68 0
-46 47 68 0
46 -47 -68 0
46 -48 -68 0
46 -47 -48 0
-47 31 32 0
-47 -31 -32 0
47 -31 32 0
47 31 -32 0
-48 49 51 0
-48 51 61 0
-48 49 61 0
48 -49 -61 0
48 -51 -61 0
48 -49 -51 0
-49 -50 -38 0
-49 50 38 0
49 50 -38 0
49 -50 38 0
-50 -36 -37 0
-50 36 37 0
50 36 -37 0
50 -36 37 0
-51 52 59 0
-51 53 54 0
-51 53 59 0
-51 52 54 0
51 -52 -53 0
51 -54 -59 0
52 -370 -374 0
-52 370 0
-52 374 0
53 -370 -374 -376 -380 0
-53 380 0
-53 370 0
-53 376 0
-53 374 0
-54 -55 -58 0
-54 55 58 0
54 55 -58 0
54 -55 58 0
-55 -56 -57 0
-55 56 57 0
55 56 -57 0
55 -56 57 0
56 -376 -383 0
-56 376 0
-56 383 0
57 -378 -381 0
-57 378 0
-57 381 0
58 -371 -375 0
-58 371 0
-58 375 0
-59 60 0
59 -60 0
60 -52 53 0
-60 52 0
-60 -53 0
-61 -62 -65 0
-61 62 65 0
61 62 -65 0
61 -62 65 0
-62 63 64 0
-62 -63 -64 0
62 -63 64 0
62 63 -64 0
-63 -40 -41 0
-63 40 41 0
63 40 -41 0
63 -40 41 0
-64 56 58 0
-64 57 58 0
-64 56 57 0
64 -56 -57 0
64 -57 -58 0
64 -56 -58 0
65 -66 -67 0
-65 66 0
-65 67 0
66 -377 -379 0
-66 377 0
-66 379 0
67 -372 -373 0
-67 372 0
-67 373 0
-68 63 64 0
-68 64 65 0
-68 63 65 0
68 -64 -65 0
68 -63 -64 0
68 -63 -65 0
69 -70 -71 0
-69 70 0
-69 71 0
-70 44 46 0
-70 -44 -46 0
70 -44 46 0
70 44 -46 0
71 -72 -74 0
-71 72 0
-71 74 0
-72 68 73 0
-72 -68 -73 0
72 -68 73 0
72 68 -73 0
-73 47 48 0
-73 -47 -48 0
73 -47 48 0
73 47 -48 0
-74 75 77 0
-74 77 102 0
-74 75 102 0
74 -75 -102 0
74 -77 -102 0
74 -75 -77 0
-75 61 76 0
-75 -61 -76 0
75 -61 76 0
75 61 -76 0
-76 49 51 0
-76 -49 -51 0
76 -49 51 0
76 49 -51 0
-77 78 79 0
-77 79 94 0
-77 78 94 0
77 -78 -94 0
77 -79 -94 0
77 -78 -79 0
-78 54 59 0
-78 -54 -59 0
78 -54 59 0
78 54 -59 0
-79 80 83 0
-79 83 89 0
-79 80 89 0
79 -80 -89 0
79 -83 -89 0
79 -80 -83 0
-80 -81 -82 0
-80 81 82 0
80 81 -82 0
80 -81 82 0
81 -374 -380 0
-81 374 0
-81 380 0
82 -370 -376 0
-82 370 0
-82 376 0
-83 84 85 0
-83 84 86 0
83 -84 0
83 -85 -86 0
84 -369 -374 -376 -380 0
-84 380 0
-84 369 0
-84 376 0
-84 374 0
85 -370 -381 0
-85 370 0
-85 381 0
-86 -87 -88 0
-86 87 88 0
86 87 -88 0
86 -87 88 0
87 -369 -374 0
-87 369 0
-87 374 0
88 -376 -380 0
-88 376 0
-88 380 0
-89 -90 -93 0
-89 90 93 0
89 90 -93 0
89 -90 93 0
-90 -91 -92 0
-90 91 92 0
90 91 -92 0
90 -91 92 0
91 -381 -383 0
-91 381 0
-91 383 0
92 -371 -378 0
-92 371 0
-92 378 0
93 -375 -379 0
-93 375 0
-93 379 0
-94 -95 -99 0
-94 95 99 0
94 95 -99 0
94 -95 99 0
-95 96 97 0
-95 -96 -97 0
95 -96 97 0
95 96 -97 0
-96 -66 -67 0
-96 66 67 0
96 66 -67 0
96 -66 67 0
-97 90 98 0
-97 93 98 0
97 -98 0
97 -90 -93 0
98 -91 -92 0
-98 91 0
-98 92 0
99 -100 -101 0
-99 100 0
-99 101 0
100 -372 -377 0
-100 372 0
-100 377 0
101 -373 -382 0
-101 373 0
-101 382 0
-102 96 97 0
-102 97 99 0
-102 96 99 0
102 -97 -99 0
102 -96 -97 0
102 -96 -99 0
-103 104 137 0
-103 104 105 0
-103 105 137 0
103 -105 -137 0
103 -104 -137 0
103 -104 -105 0
-104 -70 -71 0
-104 70 71 0
104 70 -71 0
104 -70 71 0
105 -106 -107 0
-105 106 0
-105 107 0
-106 72 74 0
-106 -72 -74 0
106 -72 74 0
106 72 -74 0
107 -108 -110 0
-107 108 0
-107 110 0
-108 102 109 0
-108 -102 -109 0
108 -102 109 0
108 102 -109 0
-109 75 77 0
-109 -75 -77 0
109 -75 77 0
109 75 -77 0
-110 111 113 0
-110 113 136 0
-110 111 136 0
110 -111 -136 0
110 -113 -136 0
110 -111 -113 0
-111 94 112 0
-111 -94 -112 0
111 -94 112 0
111 94 -112 0
-112 78 79 0
-112 -78 -79 0
112 -78 79 0
112 78 -79 0
-113 114 116 0
-113 116 129 0
-113 114 129 0
113 -114 -129 0
113 -116 -129 0
113 -114 -116 0
-114 89 115 0
-114 -89 -115 0
114 -89 115 0
114 89 -115 0
-115 80 83 0
-115 -80 -83 0
115 -80 83 0
115 80 -83 0
-116 117 118 0
-116 118 124 0
-116 117 124 0
116 -117 -124 0
116 -118 -124 0
116 -117 -118 0
-117 85 86 0
-117 -85 -86 0
117 -85 86 0
117 85 -86 0
-118 119 120 0
-118 119 121 0
118 -119 0
118 -120 -121 0
119 -369 -376 -380 -381 0
-119 381 0
-119 369 0
-119 380 0
-119 376 0
120 -370 -371 0
-120 370 0
-120 371 0
-121 -122 -123 0
-121 122 123 0
121 122 -123 0
121 -122 123 0
122 -369 -376 0
-122 369 0
-122 376 0
123 -380 -381 0
-123 380 0
-123 381 0
-124 -125 -128 0
-124 125 128 0
124 125 -128 0
124 -125 128 0
-125 -126 -127 0
-125 126 127 0
125 126 -127 0
125 -126 127 0
126 -371 -383 0
-126 371 0
-126 383 0
127 -378 -379 0
-127 378 0
-127 379 0
128 -372 -375 0
-128 372 0
-128 375 0
-129 -130 -133 0
-129 130 133 0
129 130 -133 0
129 -130 133 0
-130 131 132 0
-130 -131 -132 0
130 -131 132 0
130 131 -132 0
-131 -100 -101 0
-131 100 101 0
131 100 -101 0
131 -100 101 0
-132 126 128 0
-132 127 128 0
-132 126 127 0
132 -126 -127 0
132 -127 -128 0
132 -126 -128 0
133 -134 -135 0
-133 134 0
-133 135 0
134 -377 -382 0
-134 377 0
-134 382 0
135 -373 -384 0
-135 373 0
-135 384 0
-136 131 132 0
-136 132 133 0
-136 131 133 0
136 -132 -133 0
136 -131 -132 0
136 -131 -133 0
-137 138 198 243 0
-137 138 200 243 0
137 -138 0
137 -243 0
137 -198 -200 0
-138 140 170 0
-138 139 169 0
-138 139 170 0
-138 139 140 0
-138 140 169 0
138 -139 -140 0
138 -139 -169 -170 0
138 -140 -169 -170 0
-139 -106 -107 0
-139 106 107 0
139 106 -107 0
139 -106 107 0
140 -141 -142 0
-140 141 0
-140 142 0
-141 108 110 0
-141 -108 -110 0
141 -108 110 0
141 108 -110 0
142 -143 -145 0
-142 143 0
-142 145 0
-143 136 144 0
-143 -136 -144 0
143 -136 144 0
143 136 -144 0
-144 111 113 0
-144 -111 -113 0
144 -111 113 0
144 111 -113 0
-145 146 148 0
-145 148 168 0
-145 146 168 0
145 -148 -168 0
145 -146 -148 0
145 -146 -168 0
-146 129 147 0
-146 -129 -147 0
146 -129 147 0
146 129 -147 0
-147 114 116 0
-147 -114 -116 0
147 -114 116 0
147 114 -116 0
-148 149 151 0
-148 151 164 0
-148 149 164 0
148 -149 -164 0
148 -151 -164 0
148 -149 -151 0
-149 124 150 0
-149 -124 -150 0
149 -124 150 0
149 124 -150 0
-150 117 118 0
-150 -117 -118 0
150 -117 118 0
150 117 -118 0
-151 152 153 0
-151 153 159 0
-151 152 159 0
151 -152 -159 0
151 -153 -159 0
151 -152 -153 0
-152 120 121 0
-152 -120 -121 0
152 -120 121 0
152 120 -121 0
-153 154 155 0
-153 154 156 0
153 -154 0
153 -155 -156 0
154 -369 -371 -380 -381 0
-154 381 0
-154 369 0
-154 380 0
-154 371 0
155 -370 -379 0
-155 370 0
-155 379 0
-156 -157 -158 0
-156 157 158 0
156 157 -158 0
156 -157 158 0
157 -369 -381 0
-157 369 0
-157 381 0
158 -371 -380 0
-158 371 0
-158 380 0
-159 -160 -163 0
-159 160 163 0
159 160 -163 0
159 -160 163 0
-160 -161 -162 0
-160 161 162 0
160 161 -162 0
160 -161 162 0
161 -379 -383 0
-161 379 0
-161 383 0
162 -372 -378 0
-162 372 0
-162 378 0
163 -375 -382 0
-163 375 0
-163 382 0
-164 165 166 0
-164 -165 -166 0
164 -165 166 0
164 165 -166 0
-165 -134 -135 0
-165 134 135 0
165 134 -135 0
165 -134 135 0
-166 160 167 0
-166 163 167 0
166 -167 0
166 -160 -163 0
167 -161 -162 0
-167 161 0
-167 162 0
168 -165 -166 0
-168 165 0
-168 166 0
-169 -141 -142 0
-169 141 142 0
169 141 -142 0
169 -141 142 0
170 -171 -172 0
-170 171 0
-170 172 0
-171 143 145 0
-171 -143 -145 0
171 -143 145 0
171 143 -145 0
172 -173 -175 0
-172 173 0
-172 175 0
-173 168 174 0
-173 -168 -174 0
173 -168 174 0
173 168 -174 0
-174 146 148 0
-174 -146 -148 0
174 -146 148 0
174 146 -148 0
-175 176 178 0
-175 178 197 0
-175 176 197 0
175 -178 -197 0
175 -176 -178 0
175 -176 -197 0
-176 164 177 0
-176 -164 -177 0
176 -164 177 0
176 164 -177 0
-177 149 151 0
-177 -149 -151 0
177 -149 151 0
177 149 -151 0
-178 179 181 0
-178 181 194 0
-178 179 194 0
178 -179 -194 0
178 -181 -194 0
178 -179 -181 0
-179 159 180 0
-179 -159 -180 0
179 -159 180 0
179 159 -180 0
-180 152 153 0
-180 -152 -153 0
180 -152 153 0
180 152 -153 0
-181 182 183 0
-181 183 189 0
-181 182 189 0
181 -182 -189 0
181 -183 -189 0
181 -182 -183 0
-182 155 156 0
-182 -155 -156 0
182 -155 156 0
182 155 -156 0
-183 184 185 0
-183 184 186 0
183 -184 0
183 -185 -186 0
184 -369 -371 -379 -380 0
-184 380 0
-184 369 0
-184 379 0
-184 371 0
185 -370 -372 0
-185 370 0
-185 372 0
-186 -187 -188 0
-186 187 188 0
186 187 -188 0
186 -187 188 0
187 -369 -371 0
-187 369 0
-187 371 0
188 -379 -380 0
-188 379 0
-188 380 0
-189 -190 -193 0
-189 190 193 0
189 190 -193 0
189 -190 193 0
-190 -191 -192 0
-190 191 192 0
190 191 -192 0
190 -191 192 0
191 -372 -383 0
-191 372 0
-191 383 0
192 -378 -382 0
-192 378 0
-192 382 0
193 -375 -384 0
-193 375 0
-193 384 0
-194 195 196 0
-194 -195 -196 0
194 -195 196 0
194 195 -196 0
195 -377 -384 0
-195 377 0
-195 384 0
-196 191 193 0
-196 192 193 0
-196 191 192 0
196 -191 -192 0
196 -192 -193 0
196 -191 -193 0
197 -195 -196 0
-197 195 0
-197 196 0
198 -199 169 -170 0
198 -199 -169 170 0
-198 199 0
-198 169 170 0
-198 -169 -170 0
-199 -139 -140 0
-199 139 140 0
199 139 -140 0
199 -139 140 0
-200 202 226 0
-200 201 225 0
-200 201 226 0
-200 201 202 0
-200 202 225 0
200 -201 -202 0
200 -201 -225 -226 0
200 -202 -225 -226 0
-201 -171 -172 0
-201 171 172 0
201 171 -172 0
201 -171 172 0
202 -203 -204 0
-202 203 0
-202 204 0
-203 173 175 0
-203 -173 -175 0
203 -173 175 0
203 173 -175 0
204 -205 -207 0
-204 205 0
-204 207 0
-205 197 206 0
-205 -197 -206 0
205 -197 206 0
205 197 -206 0
-206 176 178 0
-206 -176 -178 0
206 -176 178 0
206 176 -178 0
207 -208 -210 0
-207 208 0
-207 210 0
-208 194 209 0
-208 -194 -209 0
208 -194 209 0
208 194 -209 0
-209 179 181 0
-209 -179 -181 0
209 -179 181 0
209 179 -181 0
-210 211 213 0
-210 213 224 0
-210 211 224 0
210 -213 -224 0
210 -211 -213 0
210 -211 -224 0
-211 189 212 0
-211 -189 -212 0
211 -189 212 0
211 189 -212 0
-212 182 183 0
-212 -182 -183 0
212 -182 183 0
212 182 -183 0
-213 214 215 0
-213 215 221 0
-213 214 221 0
213 -214 -221 0
213 -215 -221 0
213 -214 -215 0
-214 185 186 0
-214 -185 -186 0
214 -185 186 0
214 185 -186 0
-215 216 217 0
-215 216 218 0
215 -216 0
215 -217 -218 0
216 -369 -372 -379 -380 0
-216 380 0
-216 369 0
-216 379 0
-216 372 0
217 -370 -382 0
-217 370 0
-217 382 0
-218 -219 -220 0
-218 219 220 0
218 219 -220 0
218 -219 220 0
219 -369 -379 0
-219 369 0
-219 379 0
220 -372 -380 0
-220 372 0
-220 380 0
-221 -222 -223 0
-221 222 223 0
221 222 -223 0
221 -222 223 0
222 -382 -383 0
-222 382 0
-222 383 0
223 -378 -384 0
-223 378 0
-223 384 0
224 -222 -223 0
-224 222 0
-224 223 0
-225 -203 -204 0
-225 203 204 0
225 203 -204 0
225 -203 204 0
226 -227 -228 0
-226 227 0
-226 228 0
-227 -205 -207 0
-227 205 207 0
227 205 -207 0
227 -205 207 0
228 -229 -230 0
-228 229 0
-228 230 0
-229 208 210 0
-229 -208 -210 0
229 -208 210 0
229 208 -210 0
230 -231 -233 0
-230 231 0
-230 233 0
-231 224 232 0
-231 -224 -232 0
231 -224 232 0
231 224 -232 0
-232 211 213 0
-232 -211 -213 0
232 -211 213 0
232 211 -213 0
233 -234 -236 0
-233 234 0
-233 236 0
-234 221 235 0
-234 -221 -235 0
234 -221 235 0
234 221 -235 0
-235 214 215 0
-235 -214 -215 0
235 -214 215 0
235 214 -215 0
-236 237 238 0
-236 238 242 0
-236 237 242 0
236 -238 -242 0
236 -237 -238 0
236 -237 -242 0
-237 217 218 0
-237 -217 -218 0
237 -217 218 0
237 217 -218 0
-238 239 241 0
-238 240 241 0
-238 239 240 0
238 -239 -240 0
238 -240 -241 0
238 -239 -241 0
239 -369 -372 0
-239 369 0
-239 372 0
240 -380 -382 0
-240 380 0
-240 382 0
241 -370 -384 0
-241 370 0
-241 384 0
242 -383 -384 0
-242 383 0
-242 384 0
243 -227 228 -244 -246 0
243 227 -228 -244 -246 0
-243 246 0
-243 227 228 0
-243 244 0
-243 -227 -228 0
244 -198 -245 225 -226 0
244 -198 -245 -225 226 0
-244 245 0
-244 -225 -226 0
-244 198 0
-244 225 226 0
-245 -201 -202 0
-245 201 202 0
245 201 -202 0
245 -201 202 0
246 229 -230 -247 0
246 -229 230 -247 0
-246 247 0
-246 229 230 0
-246 -229 -230 0
247 -231 234 -236 -248 0
247 -231 -234 236 -248 0
-247 248 0
-247 234 236 0
-247 231 0
-247 -234 -236 0
248 242 -249 -250 -252 0
248 -242 249 -250 -252 0
-248 250 0
-248 242 249 0
-248 252 0
-248 -242 -249 0
-249 237 238 0
-249 -237 -238 0
249 -237 238 0
249 237 -238 0
-250 241 251 0
-250 -241 -251 0
250 -241 251 0
250 241 -251 0
-251 -239 -240 0
-251 239 240 0
251 239 -240 0
251 -239 240 0
252 -369 -380 -382 -384 0
-252 384 0
-252 369 0
-252 382 0
-252 380 0
-253 254 265 0
-253 -254 -265 0
253 -254 265 0
253 254 -265 0
-254 255 257 0
-254 -255 -257 0
254 -255 257 0
254 255 -257 0
-255 10 256 0
-255 -10 -256 0
255 -10 256 0
255 10 -256 0
-256 14 17 0
-256 15 17 0
-256 14 15 0
256 -14 -15 0
256 -15 -17 0
256 -14 -17 0
-257 258 259 0
-257 259 261 0
-257 258 261 0
257 -258 -261 0
257 -259 -261 0
257 -258 -259 0
-258 376 26 0
-258 375 22 0
-258 22 26 0
-258 376 22 0
-258 375 26 0
258 -22 -26 0
258 -375 -376 -26 0
258 -375 -376 -22 0
-259 14 260 0
-259 -14 -260 0
259 -14 260 0
259 14 -260 0
-260 -15 -17 0
-260 15 17 0
260 15 -17 0
260 -15 17 0
-261 25 262 0
-261 262 263 0
-261 25 263 0
261 -262 -263 0
261 -25 -262 0
261 -25 -263 0
-262 36 41 0
-262 37 41 0
-262 36 37 0
262 -36 -37 0
262 -37 -41 0
262 -36 -41 0
-263 23 264 0
-263 -23 -264 0
263 -23 264 0
263 23 -264 0
-264 -22 -26 0
-264 22 26 0
264 22 -26 0
264 -22 26 0
-265 266 268 0
-265 268 279 0
-265 266 279 0
265 -266 -279 0
265 -268 -279 0
265 -266 -268 0
-266 261 267 0
-266 -261 -267 0
266 -261 267 0
266 261 -267 0
-267 258 259 0
-267 -258 -259 0
267 -258 259 0
267 258 -259 0
-268 269 271 0
-268 271 273 0
-268 269 273 0
268 -269 -273 0
268 -271 -273 0
268 -269 -271 0
-269 40 270 0
-269 38 40 0
-269 38 270 0
269 -38 -40 0
269 -40 -270 0
269 -38 -270 0
-270 52 67 0
-270 56 67 0
-270 52 56 0
270 -52 -56 0
270 -56 -67 0
270 -52 -67 0
-271 263 272 0
-271 -263 -272 0
271 -263 272 0
271 263 -272 0
-272 25 262 0
-272 -25 -262 0
272 -25 262 0
272 25 -262 0
-273 274 275 0
-273 275 277 0
-273 274 277 0
273 -274 -277 0
273 -275 -277 0
273 -274 -275 0
-274 381 66 0
-274 378 58 0
-274 58 66 0
-274 381 58 0
-274 378 66 0
274 -58 -66 0
274 -378 -381 -66 0
274 -378 -381 -58 0
-275 37 276 0
-275 -37 -276 0
275 -37 276 0
275 37 -276 0
-276 -36 -41 0
-276 36 41 0
276 36 -41 0
276 -36 41 0
-277 270 278 0
-277 -270 -278 0
277 -270 278 0
277 270 -278 0
-278 -38 -40 0
-278 38 40 0
278 38 -40 0
278 -38 40 0
-279 280 282 0
-279 282 296 0
-279 280 296 0
279 -280 -296 0
279 -282 -296 0
279 -280 -282 0
-280 273 281 0
-280 -273 -281 0
280 -273 281 0
280 273 -281 0
-281 269 271 0
-281 -269 -271 0
281 -269 271 0
281 269 -271 0
-282 283 287 0
-282 287 294 0
-282 283 294 0
282 -283 -294 0
282 -287 -294 0
282 -283 -287 0
-283 53 284 0
-283 284 285 0
-283 53 285 0
283 -284 -285 0
283 -53 -284 0
283 -53 -285 0
-284 91 101 0
-284 92 101 0
-284 91 92 0
284 -91 -92 0
284 -92 -101 0
284 -91 -101 0
-285 66 286 0
-285 -66 -286 0
285 -66 286 0
285 66 -286 0
-286 -57 -58 0
-286 57 58 0
286 57 -58 0
286 -57 58 0
-287 288 290 0
-287 290 291 0
-287 288 291 0
287 -288 -291 0
287 -290 -291 0
287 -288 -290 0
-288 56 289 0
-288 -56 -289 0
288 -56 289 0
288 56 -289 0
-289 -52 -67 0
-289 52 67 0
289 52 -67 0
289 -52 67 0
-290 84 100 0
-290 93 100 0
-290 84 93 0
290 -84 -93 0
290 -93 -100 0
290 -84 -100 0
-291 80 292 0
-291 292 293 0
-291 80 293 0
291 -80 -293 0
291 -292 -293 0
291 -80 -292 0
-292 85 135 0
-292 134 135 0
-292 85 134 0
292 -85 -134 0
292 -134 -135 0
292 -85 -135 0
-293 383 128 0
-293 371 127 0
-293 127 128 0
-293 383 127 0
-293 371 128 0
293 -127 -128 0
293 -371 -383 -128 0
293 -371 -383 -127 0
-294 277 295 0
-294 -277 -295 0
294 -277 295 0
294 277 -295 0
-295 274 275 0
-295 -274 -275 0
295 -274 275 0
295 274 -275 0
-296 297 308 0
-296 308 310 0
-296 297 310 0
296 -297 -310 0
296 -308 -310 0
296 -297 -308 0
-297 298 300 0
-297 300 306 0
-297 298 306 0
297 -298 -306 0
297 -300 -306 0
297 -298 -300 0
-298 285 299 0
-298 -285 -299 0
298 -285 299 0
298 285 -299 0
-299 53 284 0
-299 -53 -284 0
299 -53 284 0
299 53 -284 0
-300 301 302 0
-300 302 304 0
-300 301 304 0
300 -301 -304 0
300 -302 -304 0
300 -301 -302 0
-301 -90 -101 0
-301 90 101 0
301 90 -101 0
301 -90 101 0
-302 84 303 0
-302 -84 -303 0
302 -84 303 0
302 84 -303 0
-303 -93 -100 0
-303 93 100 0
303 93 -100 0
303 -93 100 0
-304 86 305 0
-304 86 119 0
-304 119 305 0
304 -119 -305 0
304 -86 -305 0
304 -86 -119 0
-305 120 195 0
-305 163 195 0
-305 120 163 0
305 -120 -163 0
305 -163 -195 0
305 -120 -195 0
-306 291 307 0
-306 -291 -307 0
306 -291 307 0
306 291 -307 0
-307 288 290 0
-307 -288 -290 0
307 -288 290 0
307 288 -290 0
-308 294 309 0
-308 -294 -309 0
308 -294 309 0
308 294 -309 0
-309 283 287 0
-309 -283 -287 0
309 -283 287 0
309 283 -287 0
-310 311 322 0
-310 322 324 0
-310 311 324 0
310 -311 -324 0
310 -322 -324 0
310 -311 -322 0
-311 312 314 0
-311 314 320 0
-311 312 320 0
311 -312 -320 0
311 -314 -320 0
311 -312 -314 0
-312 293 313 0
-312 -293 -313 0
312 -293 313 0
312 293 -313 0
-313 80 292 0
-313 -80 -292 0
313 -80 292 0
313 80 -292 0
-314 315 317 0
-314 317 319 0
-314 315 319 0
314 -315 -319 0
314 -317 -319 0
314 -315 -317 0
-315 127 316 0
-315 -127 -316 0
315 -127 316 0
315 127 -316 0
-316 -126 -128 0
-316 126 128 0
316 126 -128 0
316 -126 128 0
-317 134 318 0
-317 -134 -318 0
317 -134 318 0
317 134 -318 0
-318 -85 -135 0
-318 85 135 0
318 85 -135 0
318 -85 135 0
-319 154 162 0
-319 161 162 0
-319 154 161 0
319 -154 -161 0
319 -161 -162 0
319 -154 -162 0
-320 304 321 0
-320 -304 -321 0
320 -304 321 0
320 304 -321 0
-321 301 302 0
-321 -301 -302 0
321 -301 302 0
321 301 -302 0
-322 306 323 0
-322 -306 -323 0
322 -306 323 0
322 306 -323 0
-323 298 300 0
-323 -298 -300 0
323 -298 300 0
323 298 -300 0
-324 325 334 0
-324 334 336 0
-324 325 336 0
324 -325 -336 0
324 -334 -336 0
324 -325 -334 0
-325 326 328 0
-325 328 332 0
-325 326 332 0
325 -326 -332 0
325 -328 -332 0
325 -326 -328 0
-326 305 327 0
-326 -305 -327 0
326 -305 327 0
326 305 -327 0
-327 -86 -119 0
-327 86 119 0
327 86 -119 0
327 -86 119 0
-328 121 329 0
-328 329 330 0
-328 121 330 0
328 -121 -330 0
328 -329 -330 0
328 -121 -329 0
-329 155 193 0
-329 191 193 0
-329 155 191 0
329 -155 -191 0
329 -191 -193 0
329 -155 -193 0
-330 163 331 0
-330 -163 -331 0
330 -163 331 0
330 163 -331 0
-331 -120 -195 0
-331 120 195 0
331 120 -195 0
331 -120 195 0
-332 319 333 0
-332 -319 -333 0
332 -319 333 0
332 319 -333 0
-333 315 317 0
-333 -315 -317 0
333 -315 317 0
333 315 -317 0
-334 320 335 0
-334 -320 -335 0
334 -320 335 0
334 320 -335 0
-335 312 314 0
-335 -312 -314 0
335 -312 314 0
335 312 -314 0
-336 337 342 0
-336 342 344 0
-336 337 344 0
336 -337 -344 0
336 -342 -344 0
336 -337 -342 0
-337 338 339 0
-337 339 340 0
-337 338 340 0
337 -338 -340 0
337 -339 -340 0
337 -338 -339 0
-338 154 160 0
-338 -154 -160 0
338 -154 160 0
338 154 -160 0
-339 184 192 0
-339 156 184 0
-339 156 192 0
339 -156 -184 0
339 -184 -192 0
339 -156 -192 0
-340 330 341 0
-340 -330 -341 0
340 -330 341 0
340 330 -341 0
-341 121 329 0
-341 -121 -329 0
341 -121 329 0
341 121 -329 0
-342 332 343 0
-342 -332 -343 0
342 -332 343 0
342 332 -343 0
-343 326 328 0
-343 -326 -328 0
343 -326 328 0
343 326 -328 0
-344 345 351 0
-344 351 353 0
-344 345 353 0
344 -345 -353 0
344 -351 -353 0
344 -345 -351 0
-345 346 347 0
-345 347 349 0
-345 346 349 0
345 -346 -349 0
345 -347 -349 0
345 -346 -347 0
-346 185 223 0
-346 222 223 0
-346 185 222 0
346 -185 -222 0
346 -222 -223 0
346 -185 -223 0
-347 191 348 0
-347 -191 -348 0
347 -191 348 0
347 191 -348 0
-348 -155 -193 0
-348 155 193 0
348 155 -193 0
348 -155 193 0
-349 156 350 0
-349 -156 -350 0
349 -156 350 0
349 156 -350 0
-350 -184 -192 0
-350 184 192 0
350 184 -192 0
350 -184 192 0
-351 340 352 0
-351 -340 -352 0
351 -340 352 0
351 340 -352 0
-352 338 339 0
-352 -338 -339 0
352 -338 339 0
352 338 -339 0
-353 354 357 0
-353 357 359 0
-353 354 359 0
353 -354 -359 0
353 -357 -359 0
353 -354 -357 0
-354 186 355 0
-354 186 216 0
-354 216 355 0
354 -216 -355 0
354 -186 -355 0
354 -186 -216 0
-355 222 356 0
-355 -222 -356 0
355 -222 356 0
355 222 -356 0
-356 -185 -223 0
-356 185 223 0
356 185 -223 0
356 -185 223 0
-357 349 358 0
-357 -349 -358 0
357 -349 358 0
357 349 -358 0
-358 346 347 0
-358 -346 -347 0
358 -346 347 0
358 346 -347 0
-359 360 362 0
-359 362 364 0
-359 360 364 0
359 -360 -364 0
359 -362 -364 0
359 -360 -362 0
-360 382 361 0
-360 370 242 0
-360 242 361 0
-360 382 242 0
-360 370 361 0
360 -242 -361 0
360 -370 -382 -361 0
360 -370 -382 -242 0
361 -240 -241 0
-361 240 0
-361 241 0
-362 355 363 0
-362 -355 -363 0
362 -355 363 0
362 355 -363 0
-363 -186 -216 0
-363 186 216 0
363 186 -216 0
363 -186 216 0
-364 218 365 0
-364 365 367 0
-364 218 367 0
364 -218 -367 0
364 -365 -367 0
364 -218 -365 0
-365 361 366 0
-365 -361 -366 0
365 -361 366 0
365 361 -366 0
-366 -217 -242 0
-366 217 242 0
366 217 -242 0
366 -217 242 0
-367 252 368 0
-367 239 252 0
-367 239 368 0
367 -239 -252 0
367 -252 -368 0
367 -239 -368 0
-368 -240 -241 0
-368 240 241 0
368 240 -241 0
368 -240 241 0
-385 0
2 0

